; benchmark generated from python API
(set-info :status unknown)
(declare-datatypes ((RealState 0)) (((RMk1 (rval1 Real)) (RMk2 (rval2 Real)))))
 (assert
 (forall ((|v11:0| Real) )(exists ((|v10:1_st| RealState) (val!2676 Real) )(forall ((|v9:2| Real) )(exists ((|v8:3_st| RealState) (val!2677 Real) )(forall ((|v7:4| Real) )(exists ((|v6:5_st| RealState) (val!2678 Real) )(forall ((|v5:6| Real) )(exists ((|v4:7_st| RealState) (val!2679 Real) )(forall ((|v3:8| Real) )(exists ((|v2:9_st| RealState) (val!2680 Real) )(forall ((|v1:10| Real) )(exists ((|v0:11_st| RealState) (val!2681 Real) )(let ((?x1265 (- 5.0)))
 (let ((?x2738 (+ (+ (+ (* 6.0 (rval2 |v4:7_st|)) (* 10.0 |v7:4|)) (* (- 11.0) |v1:10|)) (* 7.0 |v5:6|))))
 (let ((?x2333 (+ (+ (* (- 14.0) |v1:10|) (* 4.0 (rval2 |v4:7_st|))) (* 6.0 (rval2 |v8:3_st|)))))
 (let (($x2189 (or (<= (+ ?x2333 (* (- 10.0) (rval2 |v8:3_st|))) 15.0) (<= ?x2738 ?x1265))))
 (let ((?x1152 (rval2 |v10:1_st|)))
 (let ((?x2672 (- 1.0)))
 (let ((?x2742 (* ?x2672 ?x1152)))
 (let ((?x2779 (+ (+ (+ (* 2.0 (rval2 |v0:11_st|)) (* 10.0 (rval2 |v8:3_st|))) ?x2742) (* (- 7.0) (rval2 |v6:5_st|)))))
 (let ((?x2344 (* 6.0 |v5:6|)))
 (let ((?x3041 (+ (+ (* 9.0 (rval2 |v4:7_st|)) (* (- 15.0) (rval2 |v6:5_st|))) (* 15.0 |v5:6|))))
 (let ((?x325 (- 9.0)))
 (let ((?x2716 (+ (+ (* (- 11.0) (rval2 |v0:11_st|)) (* (- 7.0) (rval2 |v8:3_st|))) (* 3.0 (rval2 |v4:7_st|)))))
 (let ((?x1845 (- 14.0)))
 (let ((?x1579 (+ (+ (* ?x2672 (rval2 |v6:5_st|)) (* (- 18.0) |v9:2|)) (* (- 8.0) |v3:8|))))
 (let ((?x2848 (- 8.0)))
 (let ((?x2043 (+ (+ (+ (* (- 20.0) ?x1152) (* 0.0 ?x1152)) (* 11.0 (rval2 |v6:5_st|))) (* 17.0 (rval2 |v6:5_st|)))))
 (let ((?x1889 (+ (+ (+ ?x2344 (* 16.0 (rval2 |v4:7_st|))) (* (- 7.0) (rval2 |v8:3_st|))) (* 18.0 (rval2 |v4:7_st|)))))
 (let (($x845 (and (and (<= ?x1889 5.0) (<= ?x2043 ?x2848)) (or (<= (+ ?x1579 (* 20.0 |v5:6|)) ?x1845) (<= (+ ?x2716 ?x2742) ?x325)))))
 (let (($x719 (and $x845 (or (or (<= (+ ?x3041 ?x2344) 5.0) (<= ?x2779 3.0)) $x2189))))
 (let ((?x2914 (+ (+ (* (- 10.0) (rval2 |v0:11_st|)) (* (- 12.0) |v7:4|)) (* 3.0 |v5:6|))))
 (let ((?x908 (- 17.0)))
 (let ((?x1200 (+ (+ (* 10.0 (rval2 |v0:11_st|)) (* 9.0 (rval2 |v2:9_st|))) (* (- 13.0) |v7:4|))))
 (let ((?x938 (+ (+ (+ (rval2 |v6:5_st|) (* ?x1845 |v1:10|)) (* (- 18.0) |v9:2|)) (* (- 12.0) |v3:8|))))
 (let ((?x874 (+ (+ (* ?x908 |v9:2|) (* (- 12.0) (rval2 |v6:5_st|))) (* (- 3.0) (rval2 |v2:9_st|)))))
 (let ((?x656 (* ?x1845 |v3:8|)))
 (let ((?x580 (+ (+ (+ (* 20.0 |v7:4|) (* 0.0 |v3:8|)) (* 5.0 (rval2 |v0:11_st|))) ?x656)))
 (let (($x221 (or (<= ?x580 16.0) (<= (+ ?x874 (* (- 13.0) (rval2 |v4:7_st|))) 13.0))))
 (let (($x837 (and (or $x221 (or (<= ?x938 19.0) (<= (+ ?x1200 (* ?x2848 |v9:2|)) ?x908))) (<= (+ ?x2914 (* ?x908 (rval2 |v4:7_st|))) 2.0))))
 (let ((?x991 (- 13.0)))
 (let ((?x2949 (* ?x991 |v1:10|)))
 (let ((?x3158 (* 8.0 |v9:2|)))
 (let ((?x1900 (+ (+ (+ (* (- 16.0) ?x1152) (* (- 12.0) (rval2 |v0:11_st|))) ?x3158) ?x2949)))
 (let ((?x1555 (- 16.0)))
 (let ((?x360 (+ (+ (* 17.0 (rval2 |v4:7_st|)) (* 16.0 (rval2 |v8:3_st|))) (* 7.0 (rval2 |v6:5_st|)))))
 (let ((?x1203 (* 5.0 ?x1152)))
 (let ((?x1748 (+ (+ (* ?x991 (rval2 |v2:9_st|)) (* 15.0 |v3:8|)) (* (- 10.0) (rval2 |v2:9_st|)))))
 (let ((?x347 (- 7.0)))
 (let ((?x1784 (- 3.0)))
 (let ((?x838 (* ?x1784 |v11:0|)))
 (let ((?x1957 (+ (+ (+ (* 5.0 |v1:10|) (* 4.0 (rval2 |v2:9_st|))) (* 15.0 |v3:8|)) ?x838)))
 (let (($x1994 (or (and (<= ?x1957 ?x347) (<= (+ ?x1748 ?x1203) 10.0)) (or (<= (+ ?x360 (* (- 6.0) |v1:10|)) ?x1555) (<= ?x1900 20.0)))))
 (let ((?x1582 (+ (+ (* (- 19.0) ?x1152) (* (- 10.0) |v9:2|)) (* (- 6.0) (rval2 |v6:5_st|)))))
 (let ((?x1985 (rval2 |v0:11_st|)))
 (let ((?x2430 (* 2.0 ?x1985)))
 (let ((?x1641 (+ (+ (* 14.0 (rval2 |v8:3_st|)) (* (- 20.0) ?x1985)) (* ?x1265 (rval2 |v2:9_st|)))))
 (let (($x1785 (and (<= (+ ?x1641 ?x2430) ?x1784) (<= (+ ?x1582 (* ?x1555 (rval2 |v8:3_st|))) 6.0))))
 (let ((?x2975 (- 19.0)))
 (let ((?x3153 (* ?x2975 ?x1152)))
 (let ((?x2187 (+ (+ (+ (* 15.0 |v9:2|) (* 9.0 (rval2 |v2:9_st|))) (* ?x2848 |v11:0|)) ?x3153)))
 (let ((?x2766 (- 10.0)))
 (let ((?x2724 (+ (+ (+ (* 18.0 (rval2 |v8:3_st|)) ?x838) (* (- 12.0) |v9:2|)) (* (- 6.0) ?x1152))))
 (let ((?x1313 (* 10.0 ?x1985)))
 (let (($x2415 (<= (+ (+ (+ |v7:4| (* (- 4.0) ?x1152)) (* ?x325 (rval2 |v8:3_st|))) ?x1313) 10.0)))
 (let ((?x1927 (+ (+ (+ (* (- 6.0) |v3:8|) (* 16.0 (rval2 |v8:3_st|))) (* 19.0 |v7:4|)) |v1:10|)))
 (let (($x932 (<= (+ (+ (+ ?x2742 (* ?x1845 |v1:10|)) (* ?x1555 |v5:6|)) (* 8.0 |v3:8|)) 11.0)))
 (let ((?x1404 (- 2.0)))
 (let ((?x3132 (+ (+ (+ (* 12.0 |v9:2|) (* 6.0 (rval2 |v6:5_st|))) (* 11.0 |v11:0|)) (* 5.0 |v9:2|))))
 (let ((?x949 (* 7.0 ?x1985)))
 (let ((?x3111 (+ (+ (* (- 20.0) (rval2 |v2:9_st|)) (* (- 11.0) (rval2 |v2:9_st|))) ?x949)))
 (let ((?x581 (rval2 |v8:3_st|)))
 (let ((?x856 (* 16.0 ?x581)))
 (let (($x1330 (<= (+ (+ (+ (* 13.0 ?x581) (* ?x2672 |v11:0|)) ?x856) (* ?x1404 |v9:2|)) 15.0)))
 (let (($x1079 (<= (+ (+ (+ (* ?x2975 |v5:6|) (* 13.0 |v7:4|)) (* ?x2975 |v9:2|)) ?x656) 7.0)))
 (let ((?x1763 (* 11.0 |v7:4|)))
 (let ((?x771 (+ (+ (+ (* 18.0 (rval2 |v6:5_st|)) (* 9.0 ?x1985)) (* 14.0 |v1:10|)) ?x1763)))
 (let (($x506 (and (or (<= ?x771 1.0) $x1079) (and $x1330 (<= (+ ?x3111 (* 7.0 (rval2 |v2:9_st|))) 13.0)))))
 (let (($x1824 (and (or $x506 (or (and (<= ?x3132 ?x1404) $x932) (and (<= ?x1927 ?x1555) $x2415))) (and (or (and (<= ?x2724 ?x2766) (<= ?x2187 1.0)) $x1785) $x1994))))
 (let ((?x1393 (+ (+ (* (- 20.0) (rval2 |v6:5_st|)) (* ?x1555 |v7:4|)) (* (- 12.0) (rval2 |v2:9_st|)))))
 (let (($x1688 (or (<= (+ ?x1393 (* (- 11.0) |v5:6|)) 6.0) (and $x1824 (and $x837 $x719)))))
 (let (($x1423 (not (= |v0:11_st| (RMk1 val!2681)))))
 (let (($x937 (not (= |v2:9_st| (RMk1 val!2680)))))
 (let (($x1277 (not (= |v4:7_st| (RMk1 val!2679)))))
 (let (($x1151 (not (= |v6:5_st| (RMk1 val!2678)))))
 (let (($x1011 (not (= |v8:3_st| (RMk1 val!2677)))))
 (let (($x439 (not (= |v10:1_st| (RMk1 val!2676)))))
 (and $x439 $x1011 $x1151 $x1277 $x937 $x1423 $x1688)))))))))))))))))))))))))))))))))))))))))))))))))))))))))))))))))))))))))))))
 )
 )
 )
 )
 )
 )
 )
 )
 )
 )
 )
 )
(check-sat)
